50
500
344
331
318
305
302
295
295
295
293
290
289
284
277
275
272
271
260
254
252
228
226
224
223
222
217
203
190
179
177
176
172
161
159
154
154
152
144
135
134
122
108
107
103
95
93
91
86
70
60
57
